DIMENSION: 7
EDGE_WEIGHT_TYPE: EXPLICIT
EDGE_WEIGHT_FORMAT: FULL_MATRIX
EDGE_WEIGHT_SECTION:
32767 32767 35 54 81 17 75 
32767 32767 32767 32767 32767 32767 32767 
35 32767 32767 74 49 56 66 
54 32767 74 32767 94 32767 86 
81 32767 49 94 32767 9 29 
17 32767 56 32767 9 32767 18 
75 32767 66 86 29 18 32767 
EOF